NAME: berlin52
TYPE: TSP
COMMENT: 52 locations in Berlin (Groetschel)
DIMENSION: 52
EDGE_WEIGHT_TYPE: EUC_2D
NODE_COORD_SECTION
1 288 149
  2 288 129
  3 270 133
  4 256 141
  5 256 157
  6 246 157
EOF
